Welcome to the CBC MILP Solver 
Version: 2.10.3 
Build Date: Dec 15 2019 

command line - C:\Univ-Rennes\TP\PL\TP1\pulp_venv\lib\site-packages\pulp\solverdir\cbc\win\64\cbc.exe C:\Users\mihan\AppData\Local\Temp\af343fd524d14b0f89244e23725b92c2-pulp.mps -timeMode elapsed -branch -printingOptions all -solution C:\Users\mihan\AppData\Local\Temp\af343fd524d14b0f89244e23725b92c2-pulp.sol (default strategy 1)
At line 2 NAME          MODEL
At line 3 ROWS
At line 23 COLUMNS
At line 153 RHS
At line 172 BOUNDS
At line 200 ENDATA
Problem MODEL has 18 rows, 27 columns and 51 elements
Coin0008I MODEL read with 0 errors
Option for timeMode changed from cpu to elapsed
Continuous objective value is 619566 - 0.00 seconds
Cgl0003I 0 fixed, 23 tightened bounds, 0 strengthened rows, 0 substitutions
Cgl0004I processed model has 8 rows, 23 columns (23 integer (0 of which binary)) and 35 elements
Cutoff increment increased from 1e-05 to 4.9999
Cbc0012I Integer solution of 620725 found by DiveCoefficient after 0 iterations and 0 nodes (0.01 seconds)
Cbc0038I Full problem 8 rows 23 columns, reduced to 2 rows 3 columns
Cbc0012I Integer solution of 620065 found by DiveCoefficient after 4 iterations and 0 nodes (0.02 seconds)
Cbc0031I 2 added rows had average density of 5.5
Cbc0013I At root node, 2 cuts changed objective from 619565.5 to 620065 in 4 passes
Cbc0014I Cut generator 0 (Probing) - 0 row cuts average 0.0 elements, 3 column cuts (3 active)  in 0.001 seconds - new frequency is 1
Cbc0014I Cut generator 1 (Gomory) - 4 row cuts average 5.3 elements, 0 column cuts (0 active)  in 0.000 seconds - new frequency is 1
Cbc0014I Cut generator 2 (Knapsack) - 0 row cuts average 0.0 elements, 0 column cuts (0 active)  in 0.000 seconds - new frequency is -100
Cbc0014I Cut generator 3 (Clique) - 0 row cuts average 0.0 elements, 0 column cuts (0 active)  in 0.000 seconds - new frequency is -100
Cbc0014I Cut generator 4 (MixedIntegerRounding2) - 0 row cuts average 0.0 elements, 0 column cuts (0 active)  in 0.000 seconds - new frequency is -100
Cbc0014I Cut generator 5 (FlowCover) - 0 row cuts average 0.0 elements, 0 column cuts (0 active)  in 0.000 seconds - new frequency is -100
Cbc0014I Cut generator 6 (TwoMirCuts) - 7 row cuts average 6.6 elements, 0 column cuts (0 active)  in 0.000 seconds - new frequency is -100
Cbc0001I Search completed - best objective 620065, took 4 iterations and 0 nodes (0.02 seconds)
Cbc0035I Maximum depth 0, 0 variables fixed on reduced cost
Cuts at root node changed objective from 619566 to 620065
Probing was tried 4 times and created 3 cuts of which 0 were active after adding rounds of cuts (0.001 seconds)
Gomory was tried 4 times and created 4 cuts of which 0 were active after adding rounds of cuts (0.000 seconds)
Knapsack was tried 4 times and created 0 cuts of which 0 were active after adding rounds of cuts (0.000 seconds)
Clique was tried 4 times and created 0 cuts of which 0 were active after adding rounds of cuts (0.000 seconds)
MixedIntegerRounding2 was tried 4 times and created 0 cuts of which 0 were active after adding rounds of cuts (0.000 seconds)
FlowCover was tried 4 times and created 0 cuts of which 0 were active after adding rounds of cuts (0.000 seconds)
TwoMirCuts was tried 4 times and created 7 cuts of which 0 were active after adding rounds of cuts (0.000 seconds)
ZeroHalf was tried 1 times and created 0 cuts of which 0 were active after adding rounds of cuts (0.000 seconds)

Result - Optimal solution found

Objective value:                620065.00000000
Enumerated nodes:               0
Total iterations:               4
Time (CPU seconds):             0.02
Time (Wallclock seconds):       0.02

Option for printingOptions changed from normal to all
Total time (CPU seconds):       0.04   (Wallclock seconds):       0.04

